c Reduced graph for GEOM80b generated by Cyril Grelier
p edge 80 663
e 1 2
e 1 3
e 1 4
e 1 5
e 1 6
e 1 7
e 1 8
e 1 9
e 1 10
e 1 11
e 1 12
e 1 15
e 1 16
e 1 17
e 1 18
e 1 19
e 1 20
e 1 21
e 1 22
e 1 25
e 1 28
e 1 29
e 1 30
e 1 32
e 1 35
e 1 37
e 1 47
e 1 48
e 1 63
e 2 3
e 2 5
e 2 6
e 2 7
e 2 8
e 2 10
e 2 14
e 2 16
e 2 18
e 2 19
e 2 20
e 2 21
e 2 22
e 2 24
e 2 25
e 2 31
e 2 33
e 2 39
e 2 40
e 2 42
e 2 43
e 2 44
e 2 55
e 2 59
e 3 4
e 3 5
e 3 6
e 3 7
e 3 8
e 3 10
e 3 11
e 3 12
e 3 14
e 3 16
e 3 17
e 3 18
e 3 19
e 3 20
e 3 21
e 3 22
e 3 24
e 3 25
e 3 29
e 3 31
e 3 32
e 3 37
e 3 40
e 4 5
e 4 6
e 4 7
e 4 8
e 4 9
e 4 11
e 4 13
e 4 15
e 4 16
e 4 20
e 4 21
e 4 22
e 4 23
e 4 25
e 4 26
e 4 27
e 4 28
e 4 30
e 4 36
e 4 41
e 4 48
e 4 68
e 5 6
e 5 7
e 5 8
e 5 9
e 5 11
e 5 12
e 5 15
e 5 16
e 5 17
e 5 20
e 5 21
e 5 22
e 5 23
e 5 25
e 5 28
e 5 29
e 5 30
e 5 32
e 5 35
e 5 48
e 6 7
e 6 8
e 6 10
e 6 13
e 6 14
e 6 15
e 6 16
e 6 20
e 6 21
e 6 22
e 6 23
e 6 25
e 6 26
e 6 27
e 6 34
e 6 39
e 6 41
e 6 46
e 6 53
e 7 8
e 7 9
e 7 10
e 7 11
e 7 13
e 7 14
e 7 15
e 7 16
e 7 17
e 7 18
e 7 19
e 7 20
e 7 21
e 7 22
e 7 23
e 7 25
e 7 28
e 7 30
e 8 9
e 8 10
e 8 11
e 8 13
e 8 14
e 8 15
e 8 16
e 8 17
e 8 18
e 8 19
e 8 20
e 8 21
e 8 22
e 8 23
e 8 25
e 8 28
e 8 30
e 9 11
e 9 12
e 9 15
e 9 17
e 9 28
e 9 29
e 9 30
e 9 32
e 9 35
e 9 38
e 9 48
e 9 52
e 9 54
e 9 60
e 9 62
e 9 67
e 9 68
e 9 73
e 10 14
e 10 16
e 10 18
e 10 19
e 10 20
e 10 21
e 10 22
e 10 24
e 10 25
e 10 31
e 10 33
e 10 39
e 10 42
e 10 43
e 10 44
e 10 55
e 10 59
e 11 12
e 11 17
e 11 20
e 11 21
e 11 28
e 11 29
e 11 30
e 11 32
e 11 35
e 11 37
e 11 38
e 11 47
e 11 48
e 11 52
e 11 54
e 11 63
e 12 17
e 12 28
e 12 29
e 12 30
e 12 32
e 12 35
e 12 37
e 12 38
e 12 47
e 12 48
e 12 52
e 12 54
e 12 60
e 12 62
e 12 63
e 12 67
e 12 68
e 12 73
e 13 15
e 13 20
e 13 21
e 13 23
e 13 26
e 13 27
e 13 34
e 13 36
e 13 41
e 13 45
e 13 49
e 13 50
e 13 51
e 13 53
e 13 56
e 13 57
e 13 58
e 13 64
e 13 65
e 14 16
e 14 18
e 14 19
e 14 21
e 14 22
e 14 24
e 14 25
e 14 31
e 14 33
e 14 40
e 14 42
e 14 43
e 14 44
e 14 55
e 14 59
e 14 61
e 14 72
e 15 20
e 15 23
e 15 26
e 15 27
e 15 28
e 15 30
e 15 35
e 15 36
e 15 41
e 15 48
e 15 51
e 15 57
e 15 65
e 15 66
e 15 68
e 16 18
e 16 19
e 16 20
e 16 21
e 16 22
e 16 24
e 16 25
e 16 34
e 16 39
e 16 43
e 16 46
e 16 53
e 17 21
e 17 28
e 17 29
e 17 30
e 17 32
e 17 35
e 17 37
e 17 38
e 17 47
e 17 52
e 17 54
e 17 60
e 17 62
e 17 63
e 18 19
e 18 21
e 18 22
e 18 24
e 18 25
e 18 31
e 18 33
e 18 37
e 18 40
e 18 42
e 18 44
e 18 55
e 18 59
e 18 61
e 19 21
e 19 22
e 19 24
e 19 25
e 19 31
e 19 33
e 19 37
e 19 40
e 19 42
e 19 44
e 19 55
e 19 59
e 19 61
e 20 21
e 20 22
e 20 23
e 20 25
e 20 26
e 20 27
e 20 34
e 20 39
e 20 41
e 21 22
e 21 23
e 21 24
e 21 25
e 21 39
e 22 24
e 22 25
e 22 34
e 22 39
e 22 43
e 22 46
e 23 26
e 23 27
e 23 28
e 23 30
e 23 36
e 23 41
e 23 45
e 23 48
e 23 51
e 23 57
e 23 65
e 23 66
e 24 25
e 24 31
e 24 33
e 24 40
e 24 42
e 24 43
e 24 44
e 24 55
e 24 59
e 24 61
e 24 70
e 24 72
e 25 39
e 25 43
e 25 46
e 25 59
e 26 27
e 26 34
e 26 36
e 26 41
e 26 45
e 26 49
e 26 50
e 26 51
e 26 56
e 26 57
e 26 58
e 26 64
e 26 65
e 26 66
e 27 34
e 27 36
e 27 41
e 27 45
e 27 49
e 27 50
e 27 51
e 27 53
e 27 56
e 27 57
e 27 58
e 27 64
e 27 65
e 28 30
e 28 35
e 28 36
e 28 38
e 28 41
e 28 48
e 28 66
e 28 68
e 29 31
e 29 32
e 29 37
e 29 40
e 29 47
e 29 52
e 29 54
e 29 60
e 29 62
e 29 63
e 29 67
e 30 35
e 30 36
e 30 38
e 30 48
e 30 66
e 30 68
e 31 32
e 31 33
e 31 37
e 31 40
e 31 42
e 31 44
e 31 47
e 31 61
e 31 63
e 31 70
e 32 37
e 32 38
e 32 47
e 32 52
e 32 54
e 32 60
e 32 62
e 32 63
e 32 67
e 33 40
e 33 42
e 33 43
e 33 44
e 33 55
e 33 59
e 33 61
e 33 70
e 33 72
e 33 76
e 34 39
e 34 46
e 34 49
e 34 50
e 34 53
e 34 56
e 34 58
e 34 69
e 34 71
e 34 74
e 35 38
e 35 48
e 35 54
e 35 60
e 35 66
e 35 67
e 35 68
e 35 73
e 36 41
e 36 45
e 36 48
e 36 51
e 36 57
e 36 65
e 36 66
e 36 68
e 37 40
e 37 44
e 37 47
e 37 52
e 37 62
e 37 63
e 38 48
e 38 52
e 38 54
e 38 60
e 38 62
e 38 67
e 38 68
e 38 73
e 39 43
e 39 46
e 39 49
e 39 50
e 39 53
e 39 71
e 39 75
e 40 42
e 40 44
e 40 47
e 40 61
e 40 63
e 40 70
e 41 45
e 41 51
e 41 56
e 41 57
e 41 65
e 41 66
e 42 44
e 42 55
e 42 59
e 42 61
e 42 70
e 42 72
e 42 76
e 43 46
e 43 55
e 43 59
e 43 71
e 43 77
e 43 80
e 44 47
e 44 61
e 44 70
e 44 72
e 45 49
e 45 50
e 45 51
e 45 56
e 45 57
e 45 58
e 45 64
e 45 65
e 45 79
e 46 49
e 46 50
e 46 53
e 46 69
e 46 71
e 46 75
e 46 77
e 46 78
e 47 52
e 47 54
e 47 60
e 47 62
e 47 63
e 48 66
e 48 68
e 49 50
e 49 53
e 49 56
e 49 58
e 49 64
e 49 69
e 49 71
e 49 74
e 50 51
e 50 53
e 50 56
e 50 58
e 50 64
e 50 69
e 50 74
e 51 56
e 51 57
e 51 58
e 51 64
e 51 65
e 51 79
e 52 54
e 52 60
e 52 62
e 52 63
e 52 67
e 52 73
e 53 56
e 53 58
e 53 69
e 53 71
e 53 74
e 53 75
e 54 60
e 54 62
e 54 63
e 54 67
e 54 73
e 55 59
e 55 61
e 55 70
e 55 72
e 55 76
e 55 80
e 56 57
e 56 58
e 56 64
e 56 69
e 56 74
e 57 58
e 57 64
e 57 65
e 57 79
e 58 64
e 58 69
e 58 74
e 59 61
e 59 72
e 59 80
e 60 62
e 60 63
e 60 67
e 60 73
e 61 70
e 61 72
e 61 76
e 62 63
e 62 67
e 62 73
e 64 69
e 64 74
e 64 79
e 65 66
e 65 79
e 66 68
e 67 73
e 69 71
e 69 74
e 70 72
e 70 76
e 71 75
e 71 77
e 71 78
e 72 76
e 75 77
e 75 78
e 77 78
e 77 80
e 78 80
